100
102
34 4
23 2
43 5
41 5
24 3
35 5
39 5
29 4
32 3
39 4
27 3
34 3
39 5
27 2
34 4
35 4
24 2
41 6
35 4
22 2
43 4
40 5
20 2
40 4
48 6
22 2
30 3
42 4
21 2
37 4
35 5
21 2
44 5
36 4
27 3
37 4
35 4
30 4
35 4
41 4
26 3
33 4
33 4
25 3
42 5
37 5
30 3
33 3
33 4
32 3
35 3
34 4
27 3
39 4
48 6
25 2
27 3
33 4
32 3
35 4
42 5
27 2
31 4
47 5
22 2
31 3
40 4
22 2
38 4
35 4
29 3
36 4
37 5
27 3
36 3
36 3
25 2
39 4
36 4
28 3
36 3
39 4
27 3
34 4
33 4
24 3
43 6
42 6
22 2
36 4
40 4
25 3
35 3
43 4
23 3
34 4
40 5
27 3
33 4
38 4
22 2
40 4
